*<meta creator='lp_solve v5.5'>
*<meta rows=170>
*<meta columns=100>
*<meta equalities=50>
*<meta integers=0>
*<meta origsense='MIN'>
*
NAME                  
ROWS
 N  R0      
 E  MLCONS[1
 E  MLCONS[3
 L  ORCONS[0
 L  MLFLW_CN
 L  ORCONS[0
 L  ORCONS[3
 E  MLCONS[2
 L  MLFLW_CN
 L  ORFLW_DE
 E  MLCONS[0
 L  MLFLW_CN
 E  ORCONS[1
 L  ORCONS[2
 E  MLCONS[0
 L  MLFLW_CN
 E  ORCONS[1
 E  MLCONS[0
 E  MLCONS[1
 E  MLCONS[3
 L  ORFLW_DE
 L  ORCONS[0
 L  ORCONS[0
 L  MLFLW_CN
 L  ORFLW_DE
 L  ORCONS[3
 L  MLFLW_CN
 E  MLCONS[2
 E  ORCONS[1
 E  MLCONS[0
 L  MLFLW_CN
 L  ORCONS[2
 E  ORCONS[1
 L  MLFLW_CN
 L  ORCONS[2
 L  MLFLW_CN
 L  MLFLW_CN
 E  MLCONS[1
 L  ORCONS[3
 E  MLCONS[0
 L  ORFLW_DE
 L  MLFLW_CN
 E  MLCONS[3
 L  ORCONS[0
 L  ORCONS[3
 E  ORCONS[1
 L  MLFLW_CN
 L  MLFLW_CN
 L  MLFLW_CN
 E  MLCONS[1
 E  MLCONS[0
 L  ORFLW_DE
 L  ORCONS[0
 L  ORCONS[3
 E  MLCONS[3
 L  MLFLW_CN
 L  ORCONS[3
 E  ORCONS[1
 L  MLFLW_CN
 L  ORCONS[2
 L  ORCONS[0
 L  MLFLW_CN
 E  MLCONS[2
 E  MLCONS[2
 E  MLCONS[1
 L  ORCONS[2
 E  MLCONS[0
 E  ORCONS[1
 L  ORCONS[2
 L  ORFLW_DE
 E  MLCONS[3
 L  MLFLW_CN
 L  MLFLW_CN
 L  ORCONS[3
 L  MLFLW_CN
 E  MLCONS[2
 L  ORCONS[2
 E  MLCONS[1
 E  MLCONS[2
 E  ORCONS[1
 E  MLCONS[0
 L  ORCONS[2
 L  ORFLW_DE
 L  ORCONS[3
 L  MLFLW_CN
 L  MLFLW_CN
 E  MLCONS[3
 L  ORCONS[0
 E  MLCONS[2
 E  MLCONS[1
 E  MLCONS[2
 L  ORCONS[2
 L  MLFLW_CN
 L  MLFLW_CN
 E  MLCONS[0
 E  MLCONS[3
 E  ORCONS[1
 L  ORFLW_DE
 L  MLFLW_CN
 L  ORCONS[0
 E  MLCONS[3
 L  ORCONS[3
 L  MLFLW_CN
 E  MLCONS[1
 E  MLCONS[2
 E  MLCONS[1
 L  MLFLW_CN
 L  MLFLW_CN
 L  ORCONS[2
 L  MLFLW_CN
 L  ORFLW_DE
 E  MLCONS[0
 E  ORCONS[1
 E  MLCONS[3
 L  ORFLW_DE
 E  MLCONS[3
 E  MLCONS[2
 L  ORCONS[0
 L  MLFLW_CN
 E  MLCONS[1
 L  ORCONS[3
 G  ORFLW_PO
 L  MLFLW_CA
 G  ORFLW_PO
 L  MLFLW_CA
 L  MLFLW_CA
 L  MLFLW_CA
 L  MLFLW_CA
 L  MLFLW_CA
 L  MLFLW_CA
 L  MLFLW_CA
 L  MLFLW_CA
 G  ORFLW_PO
 G  ORFLW_PO
 L  MLFLW_CA
 L  MLFLW_CA
 L  MLFLW_CA
 L  MLFLW_CA
 L  MLFLW_CA
 L  MLFLW_CA
 L  MLFLW_CA
 L  MLFLW_CA
 L  MLFLW_CA
 L  MLFLW_CA
 G  ORFLW_PO
 G  ORFLW_PO
 L  MLFLW_CA
 L  MLFLW_CA
 G  ORFLW_PO
 L  MLFLW_CA
 L  MLFLW_CA
 L  MLFLW_CA
 L  MLFLW_CA
 L  MLFLW_CA
 L  MLFLW_CA
 L  MLFLW_CA
 L  MLFLW_CA
 G  ORFLW_PO
 L  MLFLW_CA
 L  MLFLW_CA
 G  ORFLW_PO
 L  MLFLW_CA
 L  MLFLW_CA
 L  MLFLW_CA
 L  MLFLW_CA
 G  ORFLW_PO
 L  MLFLW_CA
 L  MLFLW_CA
 L  MLFLW_CA
 L  MLFLW_CA
 L  MLFLW_CA
COLUMNS
    f[0][0]   R0        -0.100000000   MLCONS[0  1.0000000000
    f[0][0]   ORCONS[0  1.0000000000   MLFLW_CN  1.0000000000
    f[0][0]   MLCONS[1  -1.000000000   MLFLW_CA  1.0000000000
    f[0][1]   R0        -0.100000000   ORCONS[0  1.0000000000
    f[0][1]   MLFLW_CN  1.0000000000   MLCONS[0  1.0000000000
    f[0][1]   MLCONS[1  -1.000000000   MLFLW_CA  1.0000000000
    f[0][2]   R0        -0.100000000   ORCONS[0  1.0000000000
    f[0][2]   MLFLW_CN  1.0000000000   MLCONS[1  -1.000000000
    f[0][2]   MLCONS[0  1.0000000000   MLFLW_CA  1.0000000000
    f[0][3]   R0        -0.100000000   ORCONS[0  1.0000000000
    f[0][3]   MLCONS[0  1.0000000000   MLCONS[1  -1.000000000
    f[0][3]   MLFLW_CN  1.0000000000   MLFLW_CA  1.0000000000
    f[0][4]   R0        -0.100000000   MLCONS[1  -1.000000000
    f[0][4]   MLCONS[0  1.0000000000   ORCONS[0  1.0000000000
    f[0][4]   MLFLW_CN  1.0000000000   MLFLW_CA  1.0000000000
    f[0][5]   R0        -0.100000000   MLCONS[0  1.0000000000
    f[0][5]   MLCONS[1  -1.000000000   MLFLW_CN  1.0000000000
    f[0][5]   ORCONS[0  1.0000000000   MLFLW_CA  1.0000000000
    f[0][6]   R0        -0.100000000   MLCONS[1  -1.000000000
    f[0][6]   MLCONS[0  1.0000000000   MLFLW_CN  1.0000000000
    f[0][6]   ORCONS[0  1.0000000000   MLFLW_CA  1.0000000000
    f[0][7]   R0        -0.100000000   ORCONS[0  1.0000000000
    f[0][7]   MLCONS[0  1.0000000000   MLCONS[1  -1.000000000
    f[0][7]   MLFLW_CN  1.0000000000   MLFLW_CA  1.0000000000
    f[0][8]   R0        -0.100000000   MLCONS[1  -1.000000000
    f[0][8]   ORCONS[0  1.0000000000   MLCONS[0  1.0000000000
    f[0][8]   MLFLW_CN  1.0000000000   MLFLW_CA  1.0000000000
    f[0][9]   R0        -0.100000000   MLCONS[2  -1.000000000
    f[0][9]   MLFLW_CN  1.0000000000   MLCONS[1  1.0000000000
    f[0][9]   MLFLW_CA  1.0000000000
    f[1][0]   R0        -0.100000000   MLCONS[2  -1.000000000
    f[1][0]   MLFLW_CN  1.0000000000   MLCONS[1  1.0000000000
    f[1][0]   MLFLW_CA  1.0000000000
    f[1][1]   R0        -0.100000000   MLFLW_CN  1.0000000000
    f[1][1]   MLCONS[1  1.0000000000   MLCONS[2  -1.000000000
    f[1][1]   MLFLW_CA  1.0000000000
    f[1][2]   R0        -0.100000000   MLFLW_CN  1.0000000000
    f[1][2]   MLCONS[1  1.0000000000   MLCONS[2  -1.000000000
    f[1][2]   MLFLW_CA  1.0000000000
    f[1][3]   R0        -0.100000000   MLFLW_CN  1.0000000000
    f[1][3]   MLCONS[2  -1.000000000   MLCONS[1  1.0000000000
    f[1][3]   MLFLW_CA  1.0000000000
    f[1][4]   R0        -0.100000000   MLFLW_CN  1.0000000000
    f[1][4]   MLCONS[2  -1.000000000   MLCONS[1  1.0000000000
    f[1][4]   MLFLW_CA  1.0000000000
    f[1][5]   R0        -0.100000000   MLFLW_CN  1.0000000000
    f[1][5]   MLCONS[1  1.0000000000   MLCONS[2  -1.000000000
    f[1][5]   MLFLW_CA  1.0000000000
    f[1][6]   R0        -0.100000000   MLFLW_CN  1.0000000000
    f[1][6]   MLCONS[1  1.0000000000   MLCONS[2  -1.000000000
    f[1][6]   MLFLW_CA  1.0000000000
    f[1][7]   R0        -0.100000000   MLCONS[1  1.0000000000
    f[1][7]   MLCONS[2  -1.000000000   MLFLW_CN  1.0000000000
    f[1][7]   MLFLW_CA  1.0000000000
    f[1][8]   R0        -0.100000000   MLCONS[1  1.0000000000
    f[1][8]   MLCONS[2  -1.000000000   MLFLW_CN  1.0000000000
    f[1][8]   MLFLW_CA  1.0000000000
    f[1][9]   R0        -0.100000000   MLCONS[2  1.0000000000
    f[1][9]   MLFLW_CN  1.0000000000   ORCONS[2  1.0000000000
    f[1][9]   MLCONS[3  -1.000000000   MLFLW_CA  1.0000000000
    f[2][0]   R0        -0.100000000   MLCONS[2  1.0000000000
    f[2][0]   MLFLW_CN  1.0000000000   ORCONS[2  1.0000000000
    f[2][0]   MLCONS[3  -1.000000000   MLFLW_CA  1.0000000000
    f[2][1]   R0        -0.100000000   MLCONS[3  -1.000000000
    f[2][1]   MLFLW_CN  1.0000000000   ORCONS[2  1.0000000000
    f[2][1]   MLCONS[2  1.0000000000   MLFLW_CA  1.0000000000
    f[2][2]   R0        -0.100000000   MLCONS[3  -1.000000000
    f[2][2]   MLFLW_CN  1.0000000000   MLCONS[2  1.0000000000
    f[2][2]   ORCONS[2  1.0000000000   MLFLW_CA  1.0000000000
    f[2][3]   R0        -0.100000000   ORCONS[2  1.0000000000
    f[2][3]   MLCONS[3  -1.000000000   MLCONS[2  1.0000000000
    f[2][3]   MLFLW_CN  1.0000000000   MLFLW_CA  1.0000000000
    f[2][4]   R0        -0.100000000   ORCONS[2  1.0000000000
    f[2][4]   MLCONS[3  -1.000000000   MLCONS[2  1.0000000000
    f[2][4]   MLFLW_CN  1.0000000000   MLFLW_CA  1.0000000000
    f[2][5]   R0        -0.100000000   ORCONS[2  1.0000000000
    f[2][5]   MLCONS[2  1.0000000000   MLCONS[3  -1.000000000
    f[2][5]   MLFLW_CN  1.0000000000   MLFLW_CA  1.0000000000
    f[2][6]   R0        -0.100000000   ORCONS[2  1.0000000000
    f[2][6]   MLCONS[3  -1.000000000   MLCONS[2  1.0000000000
    f[2][6]   MLFLW_CN  1.0000000000   MLFLW_CA  1.0000000000
    f[2][7]   R0        -0.100000000   MLFLW_CN  1.0000000000
    f[2][7]   ORCONS[2  1.0000000000   MLCONS[2  1.0000000000
    f[2][7]   MLCONS[3  -1.000000000   MLFLW_CA  1.0000000000
    f[2][8]   R0        -0.100000000   MLFLW_CN  1.0000000000
    f[2][8]   ORCONS[2  1.0000000000   MLCONS[3  -1.000000000
    f[2][8]   MLCONS[2  1.0000000000   MLFLW_CA  1.0000000000
    f[2][9]   R0        -0.100000000   ORCONS[3  1.0000000000
    f[2][9]   MLCONS[3  1.0000000000   MLFLW_CA  1.0000000000
    f[3][0]   R0        -0.100000000   ORCONS[3  1.0000000000
    f[3][0]   MLCONS[3  1.0000000000   MLFLW_CA  1.0000000000
    f[3][1]   R0        -0.100000000   MLCONS[3  1.0000000000
    f[3][1]   ORCONS[3  1.0000000000   MLFLW_CA  1.0000000000
    f[3][2]   R0        -0.100000000   MLCONS[3  1.0000000000
    f[3][2]   ORCONS[3  1.0000000000   MLFLW_CA  1.0000000000
    f[3][3]   R0        -0.100000000   MLCONS[3  1.0000000000
    f[3][3]   ORCONS[3  1.0000000000   MLFLW_CA  1.0000000000
    f[3][4]   R0        -0.100000000   MLCONS[3  1.0000000000
    f[3][4]   ORCONS[3  1.0000000000   MLFLW_CA  1.0000000000
    f[3][5]   R0        -0.100000000   ORCONS[3  1.0000000000
    f[3][5]   MLCONS[3  1.0000000000   MLFLW_CA  1.0000000000
    f[3][6]   R0        -0.100000000   MLCONS[3  1.0000000000
    f[3][6]   ORCONS[3  1.0000000000   MLFLW_CA  1.0000000000
    f[3][7]   R0        -0.100000000   ORCONS[3  1.0000000000
    f[3][7]   MLCONS[3  1.0000000000   MLFLW_CA  1.0000000000
    f[3][8]   R0        -0.100000000   ORCONS[3  1.0000000000
    f[3][8]   MLCONS[3  1.0000000000   MLFLW_CA  1.0000000000
    f[3][9]   R0        1.0000000000   ORCONS[1  1.0000000000
    l[1][10]  R0        1.0000000000   ORFLW_DE  -1.000000000
    l[1][10]  ORCONS[1  -1.000000000   ORCONS[1  1.0000000000
    l[1][1]   R0        1.0000000000   ORFLW_DE  -1.000000000
    l[1][1]   ORCONS[1  -1.000000000   ORCONS[1  1.0000000000
    l[1][2]   R0        1.0000000000   ORCONS[1  -1.000000000
    l[1][2]   ORCONS[1  1.0000000000   ORFLW_DE  -1.000000000
    l[1][3]   R0        1.0000000000   ORCONS[1  1.0000000000
    l[1][3]   ORFLW_DE  -1.000000000   ORCONS[1  -1.000000000
    l[1][4]   R0        1.0000000000   ORFLW_DE  -1.000000000
    l[1][4]   ORCONS[1  -1.000000000   ORCONS[1  1.0000000000
    l[1][5]   R0        1.0000000000   ORFLW_DE  -1.000000000
    l[1][5]   ORCONS[1  -1.000000000   ORCONS[1  1.0000000000
    l[1][6]   R0        1.0000000000   ORCONS[1  -1.000000000
    l[1][6]   ORCONS[1  1.0000000000   ORFLW_DE  -1.000000000
    l[1][7]   R0        1.0000000000   ORCONS[1  -1.000000000
    l[1][7]   ORCONS[1  1.0000000000   ORFLW_DE  -1.000000000
    l[1][8]   R0        1.0000000000   ORCONS[1  1.0000000000
    l[1][8]   ORFLW_DE  -1.000000000   ORCONS[1  -1.000000000
    l[1][9]   R0        1.0000000000   MLCONS[0  1.0000000000
    n[0][10]  R0        1.0000000000   MLCONS[0  1.0000000000
    n[0][10]  MLCONS[0  -1.000000000   ORCONS[0  -0.335280000
    n[0][1]   R0        1.0000000000   MLCONS[0  1.0000000000
    n[0][1]   ORCONS[0  -0.335280000   MLCONS[0  -1.000000000
    n[0][2]   R0        1.0000000000   ORCONS[0  -0.335280000
    n[0][2]   MLCONS[0  1.0000000000   MLCONS[0  -1.000000000
    n[0][3]   R0        1.0000000000   ORCONS[0  -0.335280000
    n[0][3]   MLCONS[0  -1.000000000   MLCONS[0  1.0000000000
    n[0][4]   R0        1.0000000000   MLCONS[0  1.0000000000
    n[0][4]   MLCONS[0  -1.000000000   ORCONS[0  -0.335280000
    n[0][5]   R0        1.0000000000   MLCONS[0  -1.000000000
    n[0][5]   MLCONS[0  1.0000000000   ORCONS[0  -0.335280000
    n[0][6]   R0        1.0000000000   MLCONS[0  1.0000000000
    n[0][6]   MLCONS[0  -1.000000000   ORCONS[0  -0.335280000
    n[0][7]   R0        1.0000000000   ORCONS[0  -0.335280000
    n[0][7]   MLCONS[0  -1.000000000   MLCONS[0  1.0000000000
    n[0][8]   R0        1.0000000000   MLCONS[0  1.0000000000
    n[0][8]   ORCONS[0  -0.335280000   MLCONS[0  -1.000000000
    n[0][9]   R0        1.0000000000   MLCONS[1  1.0000000000
    n[1][10]  R0        1.0000000000   MLFLW_CN  0.0838200000
    n[1][10]  MLCONS[1  -1.000000000   MLCONS[1  1.0000000000
    n[1][1]   R0        1.0000000000   MLFLW_CN  0.0838200000
    n[1][1]   MLCONS[1  1.0000000000   MLCONS[1  -1.000000000
    n[1][2]   R0        1.0000000000   MLFLW_CN  0.0838200000
    n[1][2]   MLCONS[1  -1.000000000   MLCONS[1  1.0000000000
    n[1][3]   R0        1.0000000000   MLCONS[1  -1.000000000
    n[1][3]   MLCONS[1  1.0000000000   MLFLW_CN  0.0838200000
    n[1][4]   R0        1.0000000000   MLCONS[1  -1.000000000
    n[1][4]   MLCONS[1  1.0000000000   MLFLW_CN  0.0838200000
    n[1][5]   R0        1.0000000000   MLCONS[1  -1.000000000
    n[1][5]   MLFLW_CN  0.0838200000   MLCONS[1  1.0000000000
    n[1][6]   R0        1.0000000000   MLCONS[1  -1.000000000
    n[1][6]   MLCONS[1  1.0000000000   MLFLW_CN  0.0838200000
    n[1][7]   R0        1.0000000000   MLCONS[1  -1.000000000
    n[1][7]   MLFLW_CN  0.0838200000   MLCONS[1  1.0000000000
    n[1][8]   R0        1.0000000000   MLCONS[1  -1.000000000
    n[1][8]   MLCONS[1  1.0000000000   MLFLW_CN  0.0838200000
    n[1][9]   R0        1.0000000000   MLCONS[2  1.0000000000
    n[2][10]  R0        1.0000000000   MLCONS[2  -1.000000000
    n[2][10]  MLCONS[2  1.0000000000   ORCONS[2  -0.335280000
    n[2][10]  MLFLW_CN  0.0838200000
    n[2][1]   R0        1.0000000000   MLCONS[2  1.0000000000
    n[2][1]   MLFLW_CN  0.0838200000   ORCONS[2  -0.335280000
    n[2][1]   MLCONS[2  -1.000000000
    n[2][2]   R0        1.0000000000   MLFLW_CN  0.0838200000
    n[2][2]   MLCONS[2  -1.000000000   ORCONS[2  -0.335280000
    n[2][2]   MLCONS[2  1.0000000000
    n[2][3]   R0        1.0000000000   ORCONS[2  -0.335280000
    n[2][3]   MLFLW_CN  0.0838200000   MLCONS[2  -1.000000000
    n[2][3]   MLCONS[2  1.0000000000
    n[2][4]   R0        1.0000000000   ORCONS[2  -0.335280000
    n[2][4]   MLFLW_CN  0.0838200000   MLCONS[2  -1.000000000
    n[2][4]   MLCONS[2  1.0000000000
    n[2][5]   R0        1.0000000000   MLFLW_CN  0.0838200000
    n[2][5]   ORCONS[2  -0.335280000   MLCONS[2  1.0000000000
    n[2][5]   MLCONS[2  -1.000000000
    n[2][6]   R0        1.0000000000   MLFLW_CN  0.0838200000
    n[2][6]   ORCONS[2  -0.335280000   MLCONS[2  1.0000000000
    n[2][6]   MLCONS[2  -1.000000000
    n[2][7]   R0        1.0000000000   MLCONS[2  1.0000000000
    n[2][7]   ORCONS[2  -0.335280000   MLCONS[2  -1.000000000
    n[2][7]   MLFLW_CN  0.0838200000
    n[2][8]   R0        1.0000000000   ORCONS[2  -0.335280000
    n[2][8]   MLCONS[2  1.0000000000   MLCONS[2  -1.000000000
    n[2][8]   MLFLW_CN  0.0838200000
    n[2][9]   R0        1.0000000000   MLCONS[3  1.0000000000
    n[3][10]  R0        1.0000000000   MLFLW_CN  0.0838200000
    n[3][10]  ORCONS[3  -0.335280000   MLCONS[3  -1.000000000
    n[3][10]  MLCONS[3  1.0000000000
    n[3][1]   R0        1.0000000000   MLCONS[3  -1.000000000
    n[3][1]   ORCONS[3  -0.335280000   MLFLW_CN  0.0838200000
    n[3][1]   MLCONS[3  1.0000000000
    n[3][2]   R0        1.0000000000   MLCONS[3  -1.000000000
    n[3][2]   ORCONS[3  -0.335280000   MLCONS[3  1.0000000000
    n[3][2]   MLFLW_CN  0.0838200000
    n[3][3]   R0        1.0000000000   MLCONS[3  1.0000000000
    n[3][3]   MLCONS[3  -1.000000000   MLFLW_CN  0.0838200000
    n[3][3]   ORCONS[3  -0.335280000
    n[3][4]   R0        1.0000000000   MLCONS[3  -1.000000000
    n[3][4]   MLCONS[3  1.0000000000   MLFLW_CN  0.0838200000
    n[3][4]   ORCONS[3  -0.335280000
    n[3][5]   R0        1.0000000000   MLCONS[3  1.0000000000
    n[3][5]   ORCONS[3  -0.335280000   MLCONS[3  -1.000000000
    n[3][5]   MLFLW_CN  0.0838200000
    n[3][6]   R0        1.0000000000   MLCONS[3  -1.000000000
    n[3][6]   ORCONS[3  -0.335280000   MLCONS[3  1.0000000000
    n[3][6]   MLFLW_CN  0.0838200000
    n[3][7]   R0        1.0000000000   MLFLW_CN  0.0838200000
    n[3][7]   ORCONS[3  -0.335280000   MLCONS[3  1.0000000000
    n[3][7]   MLCONS[3  -1.000000000
    n[3][8]   R0        1.0000000000   MLFLW_CN  0.0838200000
    n[3][8]   ORCONS[3  -0.335280000   MLCONS[3  -1.000000000
    n[3][8]   MLCONS[3  1.0000000000
    n[3][9]   R0        -0.100000000   ORCONS[1  1.0000000000
    n[3][9]   MLFLW_CN  0.0838200000   ORFLW_DE  1.0000000000
    n[3][9]   MLCONS[1  -1.000000000   ORFLW_PO  1.0000000000
    r[1][0]   R0        -0.100000000   ORFLW_DE  1.0000000000
    r[1][0]   ORCONS[1  1.0000000000   MLFLW_CN  0.0838200000
    r[1][0]   MLCONS[1  -1.000000000   ORFLW_PO  1.0000000000
    r[1][1]   R0        -0.100000000   ORFLW_DE  1.0000000000
    r[1][1]   MLFLW_CN  0.0838200000   ORCONS[1  1.0000000000
    r[1][1]   MLCONS[1  -1.000000000   ORFLW_PO  1.0000000000
    r[1][2]   R0        -0.100000000   MLFLW_CN  0.0838200000
    r[1][2]   ORCONS[1  1.0000000000   ORFLW_DE  1.0000000000
    r[1][2]   MLCONS[1  -1.000000000   ORFLW_PO  1.0000000000
    r[1][3]   R0        -0.100000000   ORFLW_DE  1.0000000000
    r[1][3]   MLCONS[1  -1.000000000   MLFLW_CN  0.0838200000
    r[1][3]   ORCONS[1  1.0000000000   ORFLW_PO  1.0000000000
    r[1][4]   R0        -0.100000000   MLCONS[1  -1.000000000
    r[1][4]   ORFLW_DE  1.0000000000   ORCONS[1  1.0000000000
    r[1][4]   MLFLW_CN  0.0838200000   ORFLW_PO  1.0000000000
    r[1][5]   R0        -0.100000000   MLCONS[1  -1.000000000
    r[1][5]   MLFLW_CN  0.0838200000   ORFLW_DE  1.0000000000
    r[1][5]   ORCONS[1  1.0000000000   ORFLW_PO  1.0000000000
    r[1][6]   R0        -0.100000000   MLCONS[1  -1.000000000
    r[1][6]   ORCONS[1  1.0000000000   MLFLW_CN  0.0838200000
    r[1][6]   ORFLW_DE  1.0000000000   ORFLW_PO  1.0000000000
    r[1][7]   R0        -0.100000000   ORCONS[1  1.0000000000
    r[1][7]   MLCONS[1  -1.000000000   MLFLW_CN  0.0838200000
    r[1][7]   ORFLW_DE  1.0000000000   ORFLW_PO  1.0000000000
    r[1][8]   R0        -0.100000000   MLCONS[1  -1.000000000
    r[1][8]   ORFLW_DE  1.0000000000   ORCONS[1  1.0000000000
    r[1][8]   MLFLW_CN  0.0838200000   ORFLW_PO  1.0000000000
RHS
    RHS       MLFLW_CN  0.5208312500   MLFLW_CN  3.1250000000
    RHS       ORFLW_DE  0.5555000000   MLCONS[0  0.1390000000
    RHS       MLFLW_CN  3.1250000000   ORCONS[1  0.5555000000
    RHS       MLCONS[0  0.1390000000   MLFLW_CN  3.1250000000
    RHS       ORCONS[1  0.5555000000   MLCONS[0  0.1390000000
    RHS       ORFLW_DE  0.5555000000   MLFLW_CN  3.1250000000
    RHS       ORFLW_DE  0.5555000000   MLFLW_CN  0.5208312500
    RHS       ORCONS[1  0.5555000000   MLCONS[0  0.1390000000
    RHS       MLFLW_CN  3.1250000000   ORCONS[1  0.5555000000
    RHS       MLFLW_CN  3.1250000000   MLFLW_CN  3.1250000000
    RHS       MLFLW_CN  3.1250000000   MLCONS[0  0.1390000000
    RHS       ORFLW_DE  0.5555000000   MLFLW_CN  0.5208312500
    RHS       ORCONS[1  0.5555000000   MLFLW_CN  3.1250000000
    RHS       MLFLW_CN  3.1250000000   MLFLW_CN  3.1250000000
    RHS       MLCONS[0  0.1390000000   ORFLW_DE  0.5555000000
    RHS       MLFLW_CN  0.5208312500   ORCONS[1  0.5555000000
    RHS       MLFLW_CN  3.1250000000   MLFLW_CN  3.1250000000
    RHS       MLCONS[0  0.1390000000   ORCONS[1  0.5555000000
    RHS       ORFLW_DE  0.5555000000   MLFLW_CN  0.5208312500
    RHS       MLFLW_CN  3.1250000000   MLFLW_CN  3.1250000000
    RHS       ORCONS[1  0.5555000000   MLCONS[0  0.1390000000
    RHS       ORFLW_DE  0.5555000000   MLFLW_CN  0.5208312500
    RHS       MLFLW_CN  3.1250000000   MLFLW_CN  3.1250000000
    RHS       MLFLW_CN  0.5208312500   MLCONS[0  0.1390000000
    RHS       ORCONS[1  0.5555000000   ORFLW_DE  0.5555000000
    RHS       MLFLW_CN  3.1250000000   MLFLW_CN  0.5208312500
    RHS       MLFLW_CN  0.5208312500   MLFLW_CN  0.5208312500
    RHS       MLFLW_CN  3.1250000000   ORFLW_DE  0.5555000000
    RHS       MLCONS[0  0.1390000000   ORCONS[1  0.5555000000
    RHS       ORFLW_DE  0.5555000000   MLFLW_CN  3.1250000000
    RHS       MLFLW_CA  0.4166650000   MLFLW_CA  2.5000000000
    RHS       MLFLW_CA  2.5000000000   MLFLW_CA  2.5000000000
    RHS       MLFLW_CA  2.5000000000   MLFLW_CA  2.5000000000
    RHS       MLFLW_CA  0.4166650000   MLFLW_CA  2.5000000000
    RHS       MLFLW_CA  2.5000000000   MLFLW_CA  0.4166650000
    RHS       MLFLW_CA  2.5000000000   MLFLW_CA  2.5000000000
    RHS       MLFLW_CA  2.5000000000   MLFLW_CA  0.4166650000
    RHS       MLFLW_CA  2.5000000000   MLFLW_CA  0.4166650000
    RHS       MLFLW_CA  2.5000000000   MLFLW_CA  2.5000000000
    RHS       MLFLW_CA  2.5000000000   MLFLW_CA  0.4166650000
    RHS       MLFLW_CA  2.5000000000   MLFLW_CA  2.5000000000
    RHS       MLFLW_CA  2.5000000000   MLFLW_CA  2.5000000000
    RHS       MLFLW_CA  2.5000000000   MLFLW_CA  2.5000000000
    RHS       MLFLW_CA  0.4166650000   MLFLW_CA  2.5000000000
    RHS       MLFLW_CA  0.4166650000   MLFLW_CA  2.5000000000
    RHS       MLFLW_CA  0.4166650000   MLFLW_CA  2.5000000000
    RHS       MLFLW_CA  2.5000000000   MLFLW_CA  2.5000000000
    RHS       MLFLW_CA  2.5000000000   MLFLW_CA  2.5000000000
    RHS       MLFLW_CA  0.4166650000   MLFLW_CA  2.5000000000
    RHS       MLFLW_CA  2.5000000000   MLFLW_CA  2.5000000000
ENDATA
